n_machines = 3;
n_resources = 6;
n_jobs = 30;
horizon = 171;
LB = 57;
n_jobs_per_resource = [5, 5, 5, 5, 5, 5];
duration = [9, 6, 7, 6, 5, 7, 6, 9, 6, 9, 2, 5, 7, 7, 3, 5, 3, 6, 5, 5, 6, 9, 4, 9, 5, 6, 5, 4, 1, 4]